p cnf 7230 17
-7019 -7020 0
-6945 -6975 -7015 0
-6943 -6973 -7013 0
6945 -7016 0
6943 -7014 0
7017 7018 0
6977 -7018 0
-6977 -7017 0
7015 7016 0
7013 7014 0
6975 -7016 0
6973 -7014 0
-6949 -6979 7020 0
7011 7012 0
-7011 -7012 0
6979 -7020 0
6949 -7020 0
